\ Model Asignacion_copy
\ LP format - for model browsing. Use MPS format to capture full model detail.
Maximize
  + 0.05 Constant
Subject To
 Realizacion_de_las_llegadas: r_prima[3][1] = 9
 Definicion_ρ: ρ[1] - r[3][1] + 0.95 r_prima[3][1] = 0
Bounds
 ρ[1] free
 r[3][1] free
 r_prima[3][1] free
 Constant = 1
Generals
 ρ[1] r[3][1] r_prima[3][1]
End
